Minimize 
 obj1: x(1) 
Subject To 
 c1: y(0) + y(1) + y(2) + y(3) + y(4) + y(5) + y(6) + y(7) + y(8) + y(9) + 
     y(10) + y(11) + y(12) + y(13) + y(14) + y(15) + y(16) + y(17) + y(18) + y(19) + 
     y(20) + y(21) + y(22) + y(23) + y(24) + y(25) + y(26) + y(27) + y(28) + y(29) + 
     y(30) + y(31) + y(32) + y(33) + y(34) + y(35) + y(36) + y(37) + y(38) + y(39) + 
     y(40) + y(41) + y(42) + y(43) + y(44) + y(45) + y(46) + y(47) + y(48) + y(49) + 
     y(50) + y(51) + y(52) + y(53) + y(54) + y(55) + y(56) + y(57) + y(58) + y(59) + 
     y(60) + y(61) + y(62) + y(63) + y(64) + y(65) + y(66) + y(67) + y(68) + y(69) + 
     y(70) + y(71) + y(72) + y(73) + y(74) + y(75) + y(76) + y(77) + y(78) + y(79) + 
     y(80) + y(81) + y(82) + y(83) + y(84) + y(85) + y(86) + y(87) + y(88) + y(89) + 
     y(90) + y(91) + y(92) + y(93) + y(94) + y(95) + y(96) + y(97) + y(98) + y(99) + 
     y(100) + y(101) + y(102) + y(103) + y(104) + y(105) + y(106) + y(107) + y(108) + y(109) + 
     y(110) + y(111) + y(112) + y(113) + y(114) + y(115) + y(116) + y(117) + y(118) + y(119) + 
     y(120) + y(121) + y(122) + y(123) + y(124) + y(125) + y(126) + y(127) + y(128) + y(129) + 
     y(130) + y(131) + y(132) + y(133) + y(134) + y(135) + y(136) + y(137) + y(138) + y(139) + 
     y(140) + y(141) + y(142) + y(143) + y(144) + y(145) + y(146) + y(147) + y(148) + y(149) + 
     y(150) + y(151) + y(152) + y(153) + y(154) + y(155) + y(156) + y(157) + y(158) + y(159) + 
     y(160) + y(161) + y(162) + y(163) + y(164) + y(165) + y(166) + y(167) + y(168) + y(169) + 
     y(170) + y(171) + y(172) + y(173) + y(174) + y(175) + y(176) + y(177) + y(178) + y(179) + 
     y(180) + y(181) + y(182) + y(183) + y(184) + y(185) + y(186) + y(187) + y(188) + y(189) + 
     y(190) + y(191) + y(192) + y(193) + y(194) + y(195) + y(196) + y(197) + y(198) + y(199) + 
     y(200) = 1 
 c2: x(1) + x(2) - 400 y(0) >= - 400 
 c3: 0.9552 x(1) + 0.0448 x(2) - 400 y(1) >= -581.1839 
 c4: 0.1018 x(1) + 0.8982 x(2) - 400 y(1) >= -242.1231 
 c5: 0.8634 x(1) + 0.1366 x(2) - 400 y(2) >= -543.3772 
 c6: 0.2177 x(1) + 0.7823 x(2) - 400 y(2) >= -289.0994 
 c7: 0.9323 x(1) + 0.0677 x(2) - 400 y(3) >= -569.0669 
 c8: 0.066 x(1) + 0.934 x(2) - 400 y(3) >= -231.3166 
 c9: 0.8901 x(1) + 0.1099 x(2) - 400 y(4) >= -550.9185 
 c10: 0.0323 x(1) + 0.9677 x(2) - 400 y(4) >= -219.1493 
 c11: 0.9636 x(1) + 0.0364 x(2) - 400 y(5) >= -576.8178 
 c12: 0.1535 x(1) + 0.8465 x(2) - 400 y(5) >= -268.0906 
 c13: 0.7802 x(1) + 0.2198 x(2) - 400 y(6) >= -505.9474 
 c14: 0.0556 x(1) + 0.9444 x(2) - 400 y(6) >= -232.3117 
 c15: 0.8791 x(1) + 0.1209 x(2) - 400 y(7) >= -542.2208 
 c16: 0.06 x(1) + 0.94 x(2) - 400 y(7) >= -235.3957 
 c17: 0.9735 x(1) + 0.0265 x(2) - 400 y(8) >= -575.131 
 c18: 0.1261 x(1) + 0.8739 x(2) - 400 y(8) >= -262.4467 
 c19: 0.9301 x(1) + 0.0699 x(2) - 400 y(9) >= -557.6924 
 c20: 0.1851 x(1) + 0.8149 x(2) - 400 y(9) >= -284.8519 
 c21: 0.9111 x(1) + 0.0889 x(2) - 400 y(10) >= -548.4992 
 c22: 0.1147 x(1) + 0.8853 x(2) - 400 y(10) >= -261.0597 
 c23: 0.8608 x(1) + 0.1392 x(2) - 400 y(11) >= -529.0899 
 c24: 0.0652 x(1) + 0.9348 x(2) - 400 y(11) >= -245.0833 
 c25: 0.9848 x(1) + 0.0152 x(2) - 400 y(12) >= -572.6101 
 c26: 0.231 x(1) + 0.769 x(2) - 400 y(12) >= -305.6484 
 c27: 0.8433 x(1) + 0.1567 x(2) - 400 y(13) >= -519.9286 
 c28: 0.1654 x(1) + 0.8346 x(2) - 400 y(13) >= -283.4494 
 c29: 0.9714 x(1) + 0.0286 x(2) - 400 y(14) >= -562.7699 
 c30: 0.1187 x(1) + 0.8813 x(2) - 400 y(14) >= -268.8987 
 c31: 0.8344 x(1) + 0.1656 x(2) - 400 y(15) >= -514.8814 
 c32: 0.1817 x(1) + 0.8183 x(2) - 400 y(15) >= -291.0987 
 c33: 0.8359 x(1) + 0.1641 x(2) - 400 y(16) >= -513.6287 
 c34: 0.1514 x(1) + 0.8486 x(2) - 400 y(16) >= -282.3565 
 c35: 0.9449 x(1) + 0.0551 x(2) - 400 y(17) >= -548.6802 
 c36: 0.03 x(1) + 0.97 x(2) - 400 y(17) >= -243.8965 
 c37: 1 x(1) + 0 x(2) - 400 y(18) >= -565.905 
 c38: 0 x(1) + 1 x(2) - 400 y(18) >= -235.4796 
 c39: 0.9636 x(1) + 0.0364 x(2) - 400 y(19) >= -550.2397 
 c40: 0.225 x(1) + 0.775 x(2) - 400 y(19) >= -310.9053 
 c41: 0.8111 x(1) + 0.1889 x(2) - 400 y(20) >= -500.5758 
 c42: 0.0136 x(1) + 0.9864 x(2) - 400 y(20) >= -243.8496 
 c43: 0.808 x(1) + 0.192 x(2) - 400 y(21) >= -498.0185 
 c44: 0.0406 x(1) + 0.9594 x(2) - 400 y(21) >= -254.4331 
 c45: 0.9081 x(1) + 0.0919 x(2) - 400 y(22) >= -528.8763 
 c46: 0.1435 x(1) + 0.8565 x(2) - 400 y(22) >= -288.7604 
 c47: 0.8006 x(1) + 0.1994 x(2) - 400 y(23) >= -493.7018 
 c48: 0.1178 x(1) + 0.8822 x(2) - 400 y(23) >= -281.1998 
 c49: 0.9276 x(1) + 0.0724 x(2) - 400 y(24) >= -530.2284 
 c50: 0.2119 x(1) + 0.7881 x(2) - 400 y(24) >= -312.3114 
 c51: 0.7778 x(1) + 0.2222 x(2) - 400 y(25) >= -484.6147 
 c52: 0.0267 x(1) + 0.9733 x(2) - 400 y(25) >= -257.1767 
 c53: 0.8632 x(1) + 0.1368 x(2) - 400 y(26) >= -508.3655 
 c54: 0.1697 x(1) + 0.8303 x(2) - 400 y(26) >= -302.2455 
 c55: 0.9088 x(1) + 0.0912 x(2) - 400 y(27) >= -520.1455 
 c56: 0.0457 x(1) + 0.9543 x(2) - 400 y(27) >= -266.5835 
 c57: 0.848 x(1) + 0.152 x(2) - 400 y(28) >= -500.7551 
 c58: 0.2284 x(1) + 0.7716 x(2) - 400 y(28) >= -321.7311 
 c59: 0.8349 x(1) + 0.1651 x(2) - 400 y(29) >= -496.4619 
 c60: 0.0063 x(1) + 0.9937 x(2) - 400 y(29) >= -258.9016 
 c61: 0.8267 x(1) + 0.1733 x(2) - 400 y(30) >= -491.6019 
 c62: 0.1942 x(1) + 0.8058 x(2) - 400 y(30) >= -314.3537 
 c63: 0.8067 x(1) + 0.1933 x(2) - 400 y(31) >= -485.6438 
 c64: 0.1859 x(1) + 0.8141 x(2) - 400 y(31) >= -313.4544 
 c65: 0.9917 x(1) + 0.0083 x(2) - 400 y(32) >= -534.1582 
 c66: 0.012 x(1) + 0.988 x(2) - 400 y(32) >= -267.1125 
 c67: 0.9079 x(1) + 0.0921 x(2) - 400 y(33) >= -510.2325 
 c68: 0.0349 x(1) + 0.9651 x(2) - 400 y(33) >= -275.2229 
 c69: 0.9942 x(1) + 0.0058 x(2) - 400 y(34) >= -531.6015 
 c70: 0.2003 x(1) + 0.7997 x(2) - 400 y(34) >= -320.2556 
 c71: 0.9489 x(1) + 0.0511 x(2) - 400 y(35) >= -518.1176 
 c72: 0.1232 x(1) + 0.8768 x(2) - 400 y(35) >= -301.3151 
 c73: 0.8387 x(1) + 0.1613 x(2) - 400 y(36) >= -487.2933 
 c74: 0.003 x(1) + 0.997 x(2) - 400 y(36) >= -272.6394 
 c75: 0.8698 x(1) + 0.1302 x(2) - 400 y(37) >= -493.6844 
 c76: 0.0072 x(1) + 0.9928 x(2) - 400 y(37) >= -275.7918 
 c77: 0.993 x(1) + 0.007 x(2) - 400 y(38) >= -522.637 
 c78: 0.1882 x(1) + 0.8118 x(2) - 400 y(38) >= -322.6793 
 c79: 0.9256 x(1) + 0.0744 x(2) - 400 y(39) >= -505.4885 
 c80: 0.1588 x(1) + 0.8412 x(2) - 400 y(39) >= -316.6955 
 c81: 0.9173 x(1) + 0.0827 x(2) - 400 y(40) >= -501.1171 
 c82: 0.1785 x(1) + 0.8215 x(2) - 400 y(40) >= -322.3482 
 c83: 0.7672 x(1) + 0.2328 x(2) - 400 y(41) >= -463.3169 
 c84: 0.052 x(1) + 0.948 x(2) - 400 y(41) >= -293.8496 
 c85: 0.9172 x(1) + 0.0828 x(2) - 400 y(42) >= -498.2417 
 c86: 0.1033 x(1) + 0.8967 x(2) - 400 y(42) >= -306.8041 
 c87: 0.9269 x(1) + 0.0731 x(2) - 400 y(43) >= -498.6098 
 c88: 0.0243 x(1) + 0.9757 x(2) - 400 y(43) >= -291.2065 
 c89: 0.9924 x(1) + 0.0076 x(2) - 400 y(44) >= -511.8066 
 c90: 0.0323 x(1) + 0.9677 x(2) - 400 y(44) >= -294.4077 
 c91: 0.8558 x(1) + 0.1442 x(2) - 400 y(45) >= -478.5252 
 c92: 0.1818 x(1) + 0.8182 x(2) - 400 y(45) >= -329.8715 
 c93: 1 x(1) + 0 x(2) - 400 y(46) >= -509.6331 
 c94: 0 x(1) + 1 x(2) - 400 y(46) >= -291.1241 
 c95: 0.8882 x(1) + 0.1118 x(2) - 400 y(47) >= -483.4687 
 c96: 0.1343 x(1) + 0.8657 x(2) - 400 y(47) >= -321.9938 
 c97: 0.978 x(1) + 0.022 x(2) - 400 y(48) >= -500.709 
 c98: 0.0208 x(1) + 0.9792 x(2) - 400 y(48) >= -299.6806 
 c99: 0.9691 x(1) + 0.0309 x(2) - 400 y(49) >= -497.1894 
 c100: 0.0441 x(1) + 0.9559 x(2) - 400 y(49) >= -306.8467 
 c101: 0.8287 x(1) + 0.1713 x(2) - 400 y(50) >= -466.3842 
 c102: 0.0248 x(1) + 0.9752 x(2) - 400 y(50) >= -304.2894 
 c103: 0.8533 x(1) + 0.1467 x(2) - 400 y(51) >= -470.7949 
 c104: 0.0533 x(1) + 0.9467 x(2) - 400 y(51) >= -312.0615 
 c105: 0.776 x(1) + 0.224 x(2) - 400 y(52) >= -453.5141 
 c106: 0.0556 x(1) + 0.9444 x(2) - 400 y(52) >= -314.3334 
 c107: 0.9774 x(1) + 0.0226 x(2) - 400 y(53) >= -490.1486 
 c108: 0.1455 x(1) + 0.8545 x(2) - 400 y(53) >= -333.2626 
 c109: 0.9826 x(1) + 0.0174 x(2) - 400 y(54) >= -490.1381 
 c110: 0.2481 x(1) + 0.7519 x(2) - 400 y(54) >= -353.0893 
 c111: 0.7981 x(1) + 0.2019 x(2) - 400 y(55) >= -453.8533 
 c112: 0.0523 x(1) + 0.9477 x(2) - 400 y(55) >= -319.2454 
 c113: 0.7784 x(1) + 0.2216 x(2) - 400 y(56) >= -449.513 
 c114: 0.0369 x(1) + 0.9631 x(2) - 400 y(56) >= -318.1384 
 c115: 0.7528 x(1) + 0.2472 x(2) - 400 y(57) >= -444.1751 
 c116: 0.0439 x(1) + 0.9561 x(2) - 400 y(57) >= -321.5079 
 c117: 0.8475 x(1) + 0.1525 x(2) - 400 y(58) >= -459.4136 
 c118: 0.0301 x(1) + 0.9699 x(2) - 400 y(58) >= -320.8371 
 c119: 0.8589 x(1) + 0.1411 x(2) - 400 y(59) >= -459.6895 
 c120: 0.1749 x(1) + 0.8251 x(2) - 400 y(59) >= -346.6715 
 c121: 0.9373 x(1) + 0.0627 x(2) - 400 y(60) >= -471.3331 
 c122: 0.1961 x(1) + 0.8039 x(2) - 400 y(60) >= -351.5656 
 c123: 0.9852 x(1) + 0.0148 x(2) - 400 y(61) >= -476.6352 
 c124: 0.2305 x(1) + 0.7695 x(2) - 400 y(61) >= -357.5259 
 c125: 0.9696 x(1) + 0.0304 x(2) - 400 y(62) >= -473.2545 
 c126: 0.0684 x(1) + 0.9316 x(2) - 400 y(62) >= -334.4508 
 c127: 0.8359 x(1) + 0.1641 x(2) - 400 y(63) >= -449.7177 
 c128: 0.1398 x(1) + 0.8602 x(2) - 400 y(63) >= -346.6864 
 c129: 0.8987 x(1) + 0.1013 x(2) - 400 y(64) >= -458.2484 
 c130: 0.1447 x(1) + 0.8553 x(2) - 400 y(64) >= -348.3802 
 c131: 0.883 x(1) + 0.117 x(2) - 400 y(65) >= -454.3302 
 c132: 0.105 x(1) + 0.895 x(2) - 400 y(65) >= -344.1096 
 c133: 0.8045 x(1) + 0.1955 x(2) - 400 y(66) >= -442.2335 
 c134: 0.1066 x(1) + 0.8934 x(2) - 400 y(66) >= -345.5876 
 c135: 0.7523 x(1) + 0.2477 x(2) - 400 y(67) >= -434.2479 
 c136: 0.233 x(1) + 0.767 x(2) - 400 y(67) >= -364.2185 
 c137: 1 x(1) + 0 x(2) - 400 y(68) >= -465.6625 
 c138: 0 x(1) + 1 x(2) - 400 y(68) >= -335.9988 
 c139: 0.8823 x(1) + 0.1177 x(2) - 400 y(69) >= -447.8432 
 c140: 0.179 x(1) + 0.821 x(2) - 400 y(69) >= -360.0596 
 c141: 0.9512 x(1) + 0.0488 x(2) - 400 y(70) >= -454.3424 
 c142: 0.1022 x(1) + 0.8978 x(2) - 400 y(70) >= -352.1673 
 c143: 0.7697 x(1) + 0.2303 x(2) - 400 y(71) >= -431.9919 
 c144: 0.0022 x(1) + 0.9978 x(2) - 400 y(71) >= -341.0774 
 c145: 0.8902 x(1) + 0.1098 x(2) - 400 y(72) >= -443.9829 
 c146: 0.0363 x(1) + 0.9637 x(2) - 400 y(72) >= -347.8756 
 c147: 1 x(1) + 0 x(2) - 400 y(73) >= -455.5246 
 c148: 0 x(1) + 1 x(2) - 400 y(73) >= -345.9129 
 c149: 0.8576 x(1) + 0.1424 x(2) - 400 y(74) >= -437.6629 
 c150: 0.0669 x(1) + 0.9331 x(2) - 400 y(74) >= -354.9551 
 c151: 0.788 x(1) + 0.212 x(2) - 400 y(75) >= -429.8873 
 c152: 0.2389 x(1) + 0.7611 x(2) - 400 y(75) >= -373.2279 
 c153: 0.9993 x(1) + 0.0007 x(2) - 400 y(76) >= -449.9242 
 c154: 0.0818 x(1) + 0.9182 x(2) - 400 y(76) >= -358.22 
 c155: 0.7821 x(1) + 0.2179 x(2) - 400 y(77) >= -426.7472 
 c156: 0.1412 x(1) + 0.8588 x(2) - 400 y(77) >= -366.8485 
 c157: 1 x(1) + 0 x(2) - 400 y(78) >= -444.799 
 c158: 0 x(1) + 1 x(2) - 400 y(78) >= -355.8925 
 c159: 0.7505 x(1) + 0.2495 x(2) - 400 y(79) >= -421.2844 
 c160: 0.1442 x(1) + 0.8558 x(2) - 400 y(79) >= -369.8893 
 c161: 0.8333 x(1) + 0.1667 x(2) - 400 y(80) >= -428.1009 
 c162: 0.0981 x(1) + 0.9019 x(2) - 400 y(80) >= -367.6682 
 c163: 0.8934 x(1) + 0.1066 x(2) - 400 y(81) >= -430.6393 
 c164: 0.1142 x(1) + 0.8858 x(2) - 400 y(81) >= -370.4663 
 c165: 0.7601 x(1) + 0.2399 x(2) - 400 y(82) >= -420.1466 
 c166: 0.2314 x(1) + 0.7686 x(2) - 400 y(82) >= -380.8751 
 c167: 0.9687 x(1) + 0.0313 x(2) - 400 y(83) >= -432.9654 
 c168: 0.1579 x(1) + 0.8421 x(2) - 400 y(83) >= -376.0011 
 c169: 0.8296 x(1) + 0.1704 x(2) - 400 y(84) >= -421.6556 
 c170: 0.2456 x(1) + 0.7544 x(2) - 400 y(84) >= -383.5416 
 c171: 0.9917 x(1) + 0.0083 x(2) - 400 y(85) >= -431.2805 
 c172: 0.0888 x(1) + 0.9112 x(2) - 400 y(85) >= -375.0907 
 c173: 0.9825 x(1) + 0.0175 x(2) - 400 y(86) >= -428.7254 
 c174: 0.2424 x(1) + 0.7576 x(2) - 400 y(86) >= -384.996 
 c175: 0.7988 x(1) + 0.2012 x(2) - 400 y(87) >= -416.3555 
 c176: 0.0405 x(1) + 0.9595 x(2) - 400 y(87) >= -376.0526 
 c177: 0.7897 x(1) + 0.2103 x(2) - 400 y(88) >= -414.2336 
 c178: 0.1034 x(1) + 0.8966 x(2) - 400 y(88) >= -380.6852 
 c179: 0.9984 x(1) + 0.0016 x(2) - 400 y(89) >= -422.0444 
 c180: 0.2037 x(1) + 0.7963 x(2) - 400 y(89) >= -386.9664 
 c181: 1 x(1) + 0 x(2) - 400 y(90) >= -421.1896 
 c182: 0 x(1) + 1 x(2) - 400 y(90) >= -379.5011 
 c183: 0.878 x(1) + 0.122 x(2) - 400 y(91) >= -414.4161 
 c184: 0.0726 x(1) + 0.9274 x(2) - 400 y(91) >= -383.792 
 c185: 0.7985 x(1) + 0.2015 x(2) - 400 y(92) >= -410.7126 
 c186: 0.1907 x(1) + 0.8093 x(2) - 400 y(92) >= -389.3136 
 c187: 0.7828 x(1) + 0.2172 x(2) - 400 y(93) >= -409.0446 
 c188: 0.1725 x(1) + 0.8275 x(2) - 400 y(93) >= -390.0893 
 c189: 0.7942 x(1) + 0.2058 x(2) - 400 y(94) >= -407.5658 
 c190: 0.2352 x(1) + 0.7648 x(2) - 400 y(94) >= -393.6112 
 c191: 0.9318 x(1) + 0.0682 x(2) - 400 y(95) >= -410.39 
 c192: 0.1584 x(1) + 0.8416 x(2) - 400 y(95) >= -392.5141 
 c193: 0.8904 x(1) + 0.1096 x(2) - 400 y(96) >= -407.7174 
 c194: 0.1357 x(1) + 0.8643 x(2) - 400 y(96) >= -393.3685 
 c195: 0.781 x(1) + 0.219 x(2) - 400 y(97) >= -403.4627 
 c196: 0.2467 x(1) + 0.7533 x(2) - 400 y(97) >= -396.9024 
 c197: 0.8106 x(1) + 0.1894 x(2) - 400 y(98) >= -403.0024 
 c198: 0.114 x(1) + 0.886 x(2) - 400 y(98) >= -396.6676 
 c199: 0.7566 x(1) + 0.2434 x(2) - 400 y(99) >= -401.1011 
 c200: 0.0519 x(1) + 0.9481 x(2) - 400 y(99) >= -398.1051 
 c201: 1 x(1) + 0 x(2) - 400 y(100) >= -401.647 
 c202: 0 x(1) + 1 x(2) - 400 y(100) >= -398.8044 
 c203: 0.8066 x(1) + 0.1934 x(2) - 400 y(101) >= -399.7286 
 c204: 0.1347 x(1) + 0.8653 x(2) - 400 y(101) >= -401.1109 
 c205: 0.7946 x(1) + 0.2054 x(2) - 400 y(102) >= -397.7962 
 c206: 0.072 x(1) + 0.928 x(2) - 400 y(102) >= -403.3913 
 c207: 0.9471 x(1) + 0.0529 x(2) - 400 y(103) >= -395.9871 
 c208: 0.1952 x(1) + 0.8048 x(2) - 400 y(103) >= -403.7904 
 c209: 0.8542 x(1) + 0.1458 x(2) - 400 y(104) >= -394.9185 
 c210: 0.0131 x(1) + 0.9869 x(2) - 400 y(104) >= -407.7717 
 c211: 0.8395 x(1) + 0.1605 x(2) - 400 y(105) >= -393.7674 
 c212: 0.2271 x(1) + 0.7729 x(2) - 400 y(105) >= -405.5068 
 c213: 0.7716 x(1) + 0.2284 x(2) - 400 y(106) >= -393.7481 
 c214: 0.0387 x(1) + 0.9613 x(2) - 400 y(106) >= -410.6843 
 c215: 0.8006 x(1) + 0.1994 x(2) - 400 y(107) >= -392.6883 
 c216: 0.2063 x(1) + 0.7937 x(2) - 400 y(107) >= -407.5485 
 c217: 0.9182 x(1) + 0.0818 x(2) - 400 y(108) >= -387.3665 
 c218: 0.1242 x(1) + 0.8758 x(2) - 400 y(108) >= -412.0438 
 c219: 0.9171 x(1) + 0.0829 x(2) - 400 y(109) >= -385.4856 
 c220: 0.0684 x(1) + 0.9316 x(2) - 400 y(109) >= -415.083 
 c221: 0.897 x(1) + 0.103 x(2) - 400 y(110) >= -385.3437 
 c222: 0.2107 x(1) + 0.7893 x(2) - 400 y(110) >= -411.3434 
 c223: 0.8516 x(1) + 0.1484 x(2) - 400 y(111) >= -384.8807 
 c224: 0.0121 x(1) + 0.9879 x(2) - 400 y(111) >= -421.1242 
 c225: 0.7958 x(1) + 0.2042 x(2) - 400 y(112) >= -386.7862 
 c226: 0.2421 x(1) + 0.7579 x(2) - 400 y(112) >= -411.7817 
 c227: 0.833 x(1) + 0.167 x(2) - 400 y(113) >= -383.6584 
 c228: 0.1954 x(1) + 0.8046 x(2) - 400 y(113) >= -416.0385 
 c229: 0.9793 x(1) + 0.0207 x(2) - 400 y(114) >= -373.6509 
 c230: 0.1588 x(1) + 0.8412 x(2) - 400 y(114) >= -419.067 
 c231: 0.8799 x(1) + 0.1201 x(2) - 400 y(115) >= -377.7419 
 c232: 0.0057 x(1) + 0.9943 x(2) - 400 y(115) >= -429.4209 
 c233: 0.8858 x(1) + 0.1142 x(2) - 400 y(116) >= -375.5577 
 c234: 0.0487 x(1) + 0.9513 x(2) - 400 y(116) >= -428.8076 
 c235: 0.8887 x(1) + 0.1113 x(2) - 400 y(117) >= -374.8918 
 c236: 0.0892 x(1) + 0.9108 x(2) - 400 y(117) >= -427.2033 
 c237: 0.9919 x(1) + 0.0081 x(2) - 400 y(118) >= -365.5383 
 c238: 0.0249 x(1) + 0.9751 x(2) - 400 y(118) >= -433.4063 
 c239: 0.867 x(1) + 0.133 x(2) - 400 y(119) >= -372.7187 
 c240: 0.1374 x(1) + 0.8626 x(2) - 400 y(119) >= -427.3405 
 c241: 0.8312 x(1) + 0.1688 x(2) - 400 y(120) >= -374.9823 
 c242: 0.1859 x(1) + 0.8141 x(2) - 400 y(120) >= -424.9407 
 c243: 0.7759 x(1) + 0.2241 x(2) - 400 y(121) >= -378.0482 
 c244: 0.0845 x(1) + 0.9155 x(2) - 400 y(121) >= -433.8565 
 c245: 0.9998 x(1) + 0.0002 x(2) - 400 y(122) >= -357.5402 
 c246: 0.1197 x(1) + 0.8803 x(2) - 400 y(122) >= -432.6315 
 c247: 0.7799 x(1) + 0.2201 x(2) - 400 y(123) >= -374.458 
 c248: 0.122 x(1) + 0.878 x(2) - 400 y(123) >= -434.6255 
 c249: 0.9991 x(1) + 0.0009 x(2) - 400 y(124) >= -353.8698 
 c250: 0.0261 x(1) + 0.9739 x(2) - 400 y(124) >= -445.0172 
 c251: 0.8717 x(1) + 0.1283 x(2) - 400 y(125) >= -363.1192 
 c252: 0.0297 x(1) + 0.9703 x(2) - 400 y(125) >= -446.7063 
 c253: 0.7837 x(1) + 0.2163 x(2) - 400 y(126) >= -371.4523 
 c254: 0.2155 x(1) + 0.7845 x(2) - 400 y(126) >= -429.506 
 c255: 0.9747 x(1) + 0.0253 x(2) - 400 y(127) >= -349.1899 
 c256: 0.2481 x(1) + 0.7519 x(2) - 400 y(127) >= -427.0413 
 c257: 0.7626 x(1) + 0.2374 x(2) - 400 y(128) >= -370.7308 
 c258: 0.047 x(1) + 0.953 x(2) - 400 y(128) >= -450.6884 
 c259: 0.9794 x(1) + 0.0206 x(2) - 400 y(129) >= -344.5861 
 c260: 0.1059 x(1) + 0.8941 x(2) - 400 y(129) >= -445.5549 
 c261: 0.8966 x(1) + 0.1034 x(2) - 400 y(130) >= -352.9196 
 c262: 0.1841 x(1) + 0.8159 x(2) - 400 y(130) >= -437.7296 
 c263: 0.9478 x(1) + 0.0522 x(2) - 400 y(131) >= -345.5453 
 c264: 0.1301 x(1) + 0.8699 x(2) - 400 y(131) >= -445.6981 
 c265: 0.7813 x(1) + 0.2187 x(2) - 400 y(132) >= -364.1931 
 c266: 0.0676 x(1) + 0.9324 x(2) - 400 y(132) >= -455.0661 
 c267: 0.9812 x(1) + 0.0188 x(2) - 400 y(133) >= -338.1533 
 c268: 0.02 x(1) + 0.98 x(2) - 400 y(133) >= -462.6499 
 c269: 0.7997 x(1) + 0.2003 x(2) - 400 y(134) >= -360.0314 
 c270: 0.1829 x(1) + 0.8171 x(2) - 400 y(134) >= -442.4978 
 c271: 0.9318 x(1) + 0.0682 x(2) - 400 y(135) >= -340.5382 
 c272: 0.0616 x(1) + 0.9384 x(2) - 400 y(135) >= -460.8728 
 c273: 0.9408 x(1) + 0.0592 x(2) - 400 y(136) >= -337.5184 
 c274: 0.0627 x(1) + 0.9373 x(2) - 400 y(136) >= -462.9304 
 c275: 0.9362 x(1) + 0.0638 x(2) - 400 y(137) >= -336.9439 
 c276: 0.1096 x(1) + 0.8904 x(2) - 400 y(137) >= -457.5894 
 c277: 0.8979 x(1) + 0.1021 x(2) - 400 y(138) >= -340.7109 
 c278: 0.1126 x(1) + 0.8874 x(2) - 400 y(138) >= -458.8243 
 c279: 0.7524 x(1) + 0.2476 x(2) - 400 y(139) >= -361.9005 
 c280: 0.1023 x(1) + 0.8977 x(2) - 400 y(139) >= -461.4248 
 c281: 1 x(1) + 0 x(2) - 400 y(140) >= -321.3388 
 c282: 0 x(1) + 1 x(2) - 400 y(140) >= -479.0048 
 c283: 0.945 x(1) + 0.055 x(2) - 400 y(141) >= -328.0146 
 c284: 0.068 x(1) + 0.932 x(2) - 400 y(141) >= -469.905 
 c285: 0.9209 x(1) + 0.0791 x(2) - 400 y(142) >= -330.0902 
 c286: 0.1975 x(1) + 0.8025 x(2) - 400 y(142) >= -450.9489 
 c287: 0.9943 x(1) + 0.0057 x(2) - 400 y(143) >= -315.0953 
 c288: 0.1146 x(1) + 0.8854 x(2) - 400 y(143) >= -466.2425 
 c289: 0.9112 x(1) + 0.0888 x(2) - 400 y(144) >= -329.1751 
 c290: 0.1394 x(1) + 0.8606 x(2) - 400 y(144) >= -462.1605 
 c291: 0.8703 x(1) + 0.1297 x(2) - 400 y(145) >= -334.2617 
 c292: 0.0695 x(1) + 0.9305 x(2) - 400 y(145) >= -477.4609 
 c293: 0.9944 x(1) + 0.0056 x(2) - 400 y(146) >= -310.1872 
 c294: 0.1696 x(1) + 0.8304 x(2) - 400 y(146) >= -460.3446 
 c295: 0.8569 x(1) + 0.1431 x(2) - 400 y(147) >= -333.4699 
 c296: 0.1725 x(1) + 0.8275 x(2) - 400 y(147) >= -461.2392 
 c297: 0.885 x(1) + 0.115 x(2) - 400 y(148) >= -326.5199 
 c298: 0.166 x(1) + 0.834 x(2) - 400 y(148) >= -463.9143 
 c299: 0.791 x(1) + 0.209 x(2) - 400 y(149) >= -343.5257 
 c300: 0.2319 x(1) + 0.7681 x(2) - 400 y(149) >= -452.3578 
 c301: 0.796 x(1) + 0.204 x(2) - 400 y(150) >= -341.7666 
 c302: 0.1263 x(1) + 0.8737 x(2) - 400 y(150) >= -474.7137 
 c303: 0.939 x(1) + 0.061 x(2) - 400 y(151) >= -310.5037 
 c304: 0.236 x(1) + 0.764 x(2) - 400 y(151) >= -453.8511 
 c305: 0.9373 x(1) + 0.0627 x(2) - 400 y(152) >= -310.1811 
 c306: 0.2258 x(1) + 0.7742 x(2) - 400 y(152) >= -456.6898 
 c307: 0.9125 x(1) + 0.0875 x(2) - 400 y(153) >= -313.0913 
 c308: 0.1579 x(1) + 0.8421 x(2) - 400 y(153) >= -472.4179 
 c309: 0.856 x(1) + 0.144 x(2) - 400 y(154) >= -323.4095 
 c310: 0.1358 x(1) + 0.8642 x(2) - 400 y(154) >= -478.5185 
 c311: 0.771 x(1) + 0.229 x(2) - 400 y(155) >= -341.1575 
 c312: 0.1693 x(1) + 0.8307 x(2) - 400 y(155) >= -472.2101 
 c313: 0.7728 x(1) + 0.2272 x(2) - 400 y(156) >= -338.9267 
 c314: 0.2061 x(1) + 0.7939 x(2) - 400 y(156) >= -465.8303 
 c315: 0.7773 x(1) + 0.2227 x(2) - 400 y(157) >= -336.9047 
 c316: 0.2453 x(1) + 0.7547 x(2) - 400 y(157) >= -458.0117 
 c317: 0.8511 x(1) + 0.1489 x(2) - 400 y(158) >= -318.5611 
 c318: 0.0894 x(1) + 0.9106 x(2) - 400 y(158) >= -495.2581 
 c319: 0.8141 x(1) + 0.1859 x(2) - 400 y(159) >= -326.5533 
 c320: 0.1754 x(1) + 0.8246 x(2) - 400 y(159) >= -476.2619 
 c321: 0.7836 x(1) + 0.2164 x(2) - 400 y(160) >= -333.0177 
 c322: 0.0477 x(1) + 0.9523 x(2) - 400 y(160) >= -508.1465 
 c323: 0.7809 x(1) + 0.2191 x(2) - 400 y(161) >= -332.8148 
 c324: 0.0963 x(1) + 0.9037 x(2) - 400 y(161) >= -498.4286 
 c325: 0.8773 x(1) + 0.1227 x(2) - 400 y(162) >= -307.864 
 c326: 0.0863 x(1) + 0.9137 x(2) - 400 y(162) >= -501.3977 
 c327: 0.7795 x(1) + 0.2205 x(2) - 400 y(163) >= -330.0361 
 c328: 0.1481 x(1) + 0.8519 x(2) - 400 y(163) >= -488.2106 
 c329: 0.7736 x(1) + 0.2264 x(2) - 400 y(164) >= -330.92 
 c330: 0.0429 x(1) + 0.9571 x(2) - 400 y(164) >= -516.3565 
 c331: 0.8982 x(1) + 0.1018 x(2) - 400 y(165) >= -298.0897 
 c332: 0.1571 x(1) + 0.8429 x(2) - 400 y(165) >= -488.6892 
 c333: 0.8961 x(1) + 0.1039 x(2) - 400 y(166) >= -296.9178 
 c334: 0.239 x(1) + 0.761 x(2) - 400 y(166) >= -468.9312 
 c335: 0.9624 x(1) + 0.0376 x(2) - 400 y(167) >= -276.5286 
 c336: 0.0917 x(1) + 0.9083 x(2) - 400 y(167) >= -509.371 
 c337: 0.9019 x(1) + 0.0981 x(2) - 400 y(168) >= -292.3141 
 c338: 0.1878 x(1) + 0.8122 x(2) - 400 y(168) >= -485.0648 
 c339: 0.8442 x(1) + 0.1558 x(2) - 400 y(169) >= -306.1069 
 c340: 0.1644 x(1) + 0.8356 x(2) - 400 y(169) >= -492.262 
 c341: 0.7715 x(1) + 0.2285 x(2) - 400 y(170) >= -325.0552 
 c342: 0.2121 x(1) + 0.7879 x(2) - 400 y(170) >= -479.9537 
 c343: 0.7581 x(1) + 0.2419 x(2) - 400 y(171) >= -327.0026 
 c344: 0.2281 x(1) + 0.7719 x(2) - 400 y(171) >= -477.2768 
 c345: 0.9791 x(1) + 0.0209 x(2) - 400 y(172) >= -263.6172 
 c346: 0.202 x(1) + 0.798 x(2) - 400 y(172) >= -486.0938 
 c347: 0.81 x(1) + 0.19 x(2) - 400 y(173) >= -310.0032 
 c348: 0.0604 x(1) + 0.9396 x(2) - 400 y(173) >= -527.9064 
 c349: 0.7775 x(1) + 0.2225 x(2) - 400 y(174) >= -318.4987 
 c350: 0.0297 x(1) + 0.9703 x(2) - 400 y(174) >= -538.9214 
 c351: 0.9545 x(1) + 0.0455 x(2) - 400 y(175) >= -264.7228 
 c352: 0.1652 x(1) + 0.8348 x(2) - 400 y(175) >= -500.5647 
 c353: 0.7552 x(1) + 0.2448 x(2) - 400 y(176) >= -322.5785 
 c354: 0.2261 x(1) + 0.7739 x(2) - 400 y(176) >= -483.2082 
 c355: 0.9748 x(1) + 0.0252 x(2) - 400 y(177) >= -254.8054 
 c356: 0.1308 x(1) + 0.8692 x(2) - 400 y(177) >= -513.0019 
 c357: 0.7925 x(1) + 0.2075 x(2) - 400 y(178) >= -309.7204 
 c358: 0.0492 x(1) + 0.9508 x(2) - 400 y(178) >= -540.4174 
 c359: 0.8282 x(1) + 0.1718 x(2) - 400 y(179) >= -297.4869 
 c360: 0.061 x(1) + 0.939 x(2) - 400 y(179) >= -537.7862 
 c361: 0.9101 x(1) + 0.0899 x(2) - 400 y(180) >= -269.8595 
 c362: 0.1981 x(1) + 0.8019 x(2) - 400 y(180) >= -496.285 
 c363: 0.8224 x(1) + 0.1776 x(2) - 400 y(181) >= -296.8081 
 c364: 0.1396 x(1) + 0.8604 x(2) - 400 y(181) >= -516.5532 
 c365: 0.8185 x(1) + 0.1815 x(2) - 400 y(182) >= -296.7608 
 c366: 0.1574 x(1) + 0.8426 x(2) - 400 y(182) >= -512.5737 
 c367: 0.8733 x(1) + 0.1267 x(2) - 400 y(183) >= -277.6211 
 c368: 0.1942 x(1) + 0.8058 x(2) - 400 y(183) >= -501.2783 
 c369: 0.9167 x(1) + 0.0833 x(2) - 400 y(184) >= -260.5296 
 c370: 0.2247 x(1) + 0.7753 x(2) - 400 y(184) >= -492.3016 
 c371: 0.7535 x(1) + 0.2465 x(2) - 400 y(185) >= -314.5282 
 c372: 0.0838 x(1) + 0.9162 x(2) - 400 y(185) >= -541.1517 
 c373: 0.8463 x(1) + 0.1537 x(2) - 400 y(186) >= -281.6055 
 c374: 0.1078 x(1) + 0.8922 x(2) - 400 y(186) >= -534.9063 
 c375: 0.7502 x(1) + 0.2498 x(2) - 400 y(187) >= -313.5961 
 c376: 0.0555 x(1) + 0.9445 x(2) - 400 y(187) >= -554.1296 
 c377: 0.871 x(1) + 0.129 x(2) - 400 y(188) >= -270.4497 
 c378: 0.0331 x(1) + 0.9669 x(2) - 400 y(188) >= -563.3092 
 c379: 0.9821 x(1) + 0.0179 x(2) - 400 y(189) >= -229.8711 
 c380: 0.1893 x(1) + 0.8107 x(2) - 400 y(189) >= -510.4931 
 c381: 0.8898 x(1) + 0.1102 x(2) - 400 y(190) >= -259.8712 
 c382: 0.0831 x(1) + 0.9169 x(2) - 400 y(190) >= -550.0235 
 c383: 0.8677 x(1) + 0.1323 x(2) - 400 y(191) >= -266.5782 
 c384: 0.2333 x(1) + 0.7667 x(2) - 400 y(191) >= -496.8758 
 c385: 0.8805 x(1) + 0.1195 x(2) - 400 y(192) >= -261.4658 
 c386: 0.1344 x(1) + 0.8656 x(2) - 400 y(192) >= -533.9147 
 c387: 0.8936 x(1) + 0.1064 x(2) - 400 y(193) >= -254.7981 
 c388: 0.0389 x(1) + 0.9611 x(2) - 400 y(193) >= -570.7964 
 c389: 0.9448 x(1) + 0.0552 x(2) - 400 y(194) >= -234.3133 
 c390: 0.1413 x(1) + 0.8587 x(2) - 400 y(194) >= -534.2698 
 c391: 0.9567 x(1) + 0.0433 x(2) - 400 y(195) >= -227.7091 
 c392: 0.1867 x(1) + 0.8133 x(2) - 400 y(195) >= -518.9121 
 c393: 0.8393 x(1) + 0.1607 x(2) - 400 y(196) >= -270.8386 
 c394: 0.0561 x(1) + 0.9439 x(2) - 400 y(196) >= -569.8394 
 c395: 0.9063 x(1) + 0.0937 x(2) - 400 y(197) >= -242.4414 
 c396: 0.1405 x(1) + 0.8595 x(2) - 400 y(197) >= -539.4201 
 c397: 0.9222 x(1) + 0.0778 x(2) - 400 y(198) >= -235.4339 
 c398: 0.0431 x(1) + 0.9569 x(2) - 400 y(198) >= -578.2401 
 c399: 0.8803 x(1) + 0.1197 x(2) - 400 y(199) >= -249.65 
 c400: 0.0139 x(1) + 0.9861 x(2) - 400 y(199) >= -592.2083 
 c401: 0.8298 x(1) + 0.1702 x(2) - 400 y(200) >= -268.6131 
 c402: 0.0447 x(1) + 0.9553 x(2) - 400 y(200) >= -581.9655 
 obj2: x(2) = 0 
Bounds 
 -200 <= x(1) <= 200 
 -200 <= x(2) <= 200 
Binaries 
 y(0)  y(1)  y(2)  y(3)  y(4)  y(5)  y(6)  y(7)  y(8)  y(9) 
 y(10)  y(11)  y(12)  y(13)  y(14)  y(15)  y(16)  y(17)  y(18)  y(19) 
 y(20)  y(21)  y(22)  y(23)  y(24)  y(25)  y(26)  y(27)  y(28)  y(29) 
 y(30)  y(31)  y(32)  y(33)  y(34)  y(35)  y(36)  y(37)  y(38)  y(39) 
 y(40)  y(41)  y(42)  y(43)  y(44)  y(45)  y(46)  y(47)  y(48)  y(49) 
 y(50)  y(51)  y(52)  y(53)  y(54)  y(55)  y(56)  y(57)  y(58)  y(59) 
 y(60)  y(61)  y(62)  y(63)  y(64)  y(65)  y(66)  y(67)  y(68)  y(69) 
 y(70)  y(71)  y(72)  y(73)  y(74)  y(75)  y(76)  y(77)  y(78)  y(79) 
 y(80)  y(81)  y(82)  y(83)  y(84)  y(85)  y(86)  y(87)  y(88)  y(89) 
 y(90)  y(91)  y(92)  y(93)  y(94)  y(95)  y(96)  y(97)  y(98)  y(99) 
 y(100)  y(101)  y(102)  y(103)  y(104)  y(105)  y(106)  y(107)  y(108)  y(109) 
 y(110)  y(111)  y(112)  y(113)  y(114)  y(115)  y(116)  y(117)  y(118)  y(119) 
 y(120)  y(121)  y(122)  y(123)  y(124)  y(125)  y(126)  y(127)  y(128)  y(129) 
 y(130)  y(131)  y(132)  y(133)  y(134)  y(135)  y(136)  y(137)  y(138)  y(139) 
 y(140)  y(141)  y(142)  y(143)  y(144)  y(145)  y(146)  y(147)  y(148)  y(149) 
 y(150)  y(151)  y(152)  y(153)  y(154)  y(155)  y(156)  y(157)  y(158)  y(159) 
 y(160)  y(161)  y(162)  y(163)  y(164)  y(165)  y(166)  y(167)  y(168)  y(169) 
 y(170)  y(171)  y(172)  y(173)  y(174)  y(175)  y(176)  y(177)  y(178)  y(179) 
 y(180)  y(181)  y(182)  y(183)  y(184)  y(185)  y(186)  y(187)  y(188)  y(189) 
 y(190)  y(191)  y(192)  y(193)  y(194)  y(195)  y(196)  y(197)  y(198)  y(199) 
 y(200) 
End